(set-logic ALL)
(declare-fun var0 () String)
(assert (str.in_re var0 (re.++ (re.+ (re.union (str.to_re "000") (str.to_re "111"))) (re.++ (re.+ (re.union (str.to_re "22") (str.to_re "3"))) (re.++ (re.union (re.+ (str.to_re "4")) (re.+ (str.to_re "555"))) (re.++ (re.+ (re.union (str.to_re "66") (str.to_re "7"))) (re.++ (re.+ (re.+ (str.to_re "88"))) (re.++ (re.+ (re.+ (str.to_re "99"))) (re.++ (re.+ (re.* (str.to_re "aaa"))) (re.++ (re.union (re.union (str.to_re "bb") (str.to_re "ccc")) (re.union (str.to_re "d") (str.to_re "e"))) (re.++ (re.+ (re.* (str.to_re "ff"))) (re.++ (re.union (re.+ (str.to_re "gg")) (re.+ (str.to_re "h"))) (re.++ (re.+ (re.+ (str.to_re "i"))) (re.++ (re.union (re.+ (str.to_re "jj")) (re.+ (str.to_re "k"))) (re.++ (re.* (re.* (str.to_re "lll"))) (re.++ (re.union (re.* (str.to_re "mm")) (re.* (str.to_re "nn"))) (re.++ (re.union (re.+ (str.to_re "oo")) (re.+ (str.to_re "p"))) (re.++ (re.union (re.union (str.to_re "q") (str.to_re "rrr")) (re.union (str.to_re "s") (str.to_re "ttt"))) (re.++ (re.* (re.* (str.to_re "uu"))) (re.++ (re.+ (re.* (str.to_re "v"))) (re.++ (re.union (re.union (str.to_re "www") (str.to_re "xx")) (re.union (str.to_re "yy") (str.to_re "zzz"))) (re.++ (re.* (re.* (str.to_re "AAA"))) (re.++ (re.union (re.+ (str.to_re "BB")) (re.+ (str.to_re "CC"))) (re.++ (re.union (re.* (str.to_re "DDD")) (re.* (str.to_re "EE"))) (re.++ (re.* (re.+ (str.to_re "FFF"))) (re.++ (re.* (re.+ (str.to_re "GGG"))) (re.++ (re.union (re.* (str.to_re "HH")) (re.* (str.to_re "III"))) (re.++ (re.union (re.union (str.to_re "JJ") (str.to_re "KK")) (re.union (str.to_re "LL") (str.to_re "MM"))) (re.++ (re.* (re.union (str.to_re "NN") (str.to_re "O"))) (re.++ (re.+ (re.+ (str.to_re "PPP"))) (re.++ (re.union (re.union (str.to_re "QQ") (str.to_re "RR")) (re.union (str.to_re "SS") (str.to_re "T"))) (re.++ (re.union (re.union (str.to_re "UUU") (str.to_re "VV")) (re.union (str.to_re "WWW") (str.to_re "XX"))) (re.++ (re.* (re.union (str.to_re "YYY") (str.to_re "ZZ"))) (re.++ (re.union (re.union (str.to_re "!") (str.to_re """""")) (re.union (str.to_re "#") (str.to_re "$$$"))) (re.++ (re.+ (re.union (str.to_re "%%") (str.to_re "&&"))) (re.++ (re.+ (re.+ (str.to_re "'"))) (re.++ (re.union (re.* (str.to_re "(")) (re.* (str.to_re ")))"))) (re.++ (re.* (re.union (str.to_re "*") (str.to_re "++"))) (re.++ (re.+ (re.* (str.to_re ",,"))) (re.++ (re.union (re.+ (str.to_re "---")) (re.+ (str.to_re "..."))) (re.++ (re.union (re.* (str.to_re "/")) (re.* (str.to_re ":"))) (re.++ (re.+ (re.* (str.to_re ";;;"))) (re.++ (re.union (re.+ (str.to_re "<<")) (re.+ (str.to_re "="))) (re.++ (re.* (re.union (str.to_re ">") (str.to_re "??"))) (re.++ (re.union (re.* (str.to_re "@@")) (re.* (str.to_re "["))) (re.++ (re.union (re.* (str.to_re "\\\\")) (re.* (str.to_re "]]"))) (re.++ (re.union (re.+ (str.to_re "^")) (re.+ (str.to_re "_"))) (re.++ (re.+ (re.* (str.to_re "```"))) (re.++ (re.+ (re.* (str.to_re "{"))) (re.++ (re.* (re.* (str.to_re "|"))) (re.++ (re.+ (re.+ (str.to_re "}"))) (re.++ (re.union (re.* (str.to_re "~~~")) (re.* (str.to_re "0"))) (re.+ (re.* (str.to_re "1")))))))))))))))))))))))))))))))))))))))))))))))))))))))
(check-sat)